language ESSENCE' 1.0

letting jobs = 102
letting horizon = 823
letting resourcesRenew = 2
letting resourcesNonrenew = 2
letting resourceLimits = [61, 59, 563, 588]
letting successors = [[2, 3, 4, 5, 6, 7, 8, 9, 10, 11, 12, 13, 14, 15, 16, 17, 18, 19, 20, 21, 22, 23, 24, 25, 26, 31, 33, 34, 35, 37, 42, 46, 50, 58, 61], [99, 98, 96, 89, 74, 70, 65, 60, 59, 55, 49, 48, 38, 30, 29], [101, 99, 98, 94, 68, 65, 64, 60, 59, 52, 49, 47, 41, 38, 36], [101, 99, 97, 94, 92, 66, 63, 56, 54, 48, 43, 39, 32], [99, 98, 96, 95, 94, 93, 92, 88, 73, 69, 65, 63, 62, 59, 54, 39, 36], [100, 96, 92, 91, 88, 73, 65, 64, 62, 60, 57, 55, 54, 49, 47, 28], [100, 99, 96, 72, 71, 67, 66, 65, 63, 62, 60, 59, 56, 49, 39, 30], [101, 100, 94, 74, 73, 71, 66, 62, 60, 59, 57, 55, 47, 27], [99, 98, 95, 91, 89, 75, 65, 63, 57, 51, 47, 29], [98, 97, 96, 95, 92, 89, 72, 71, 64, 63, 60, 56, 55, 44, 39], [101, 100, 98, 97, 96, 95, 94, 88, 87, 86, 73, 72, 71, 64, 63, 60, 59, 55, 45], [96, 92, 88, 85, 75, 74, 73, 72, 71, 66, 65, 62, 52, 49, 47], [96, 72, 65, 63, 59, 57, 55, 54, 39, 30], [96, 74, 72, 69, 59, 49, 47, 40, 30], [101, 97, 95, 92, 87, 86, 70, 63, 62, 60, 59, 57, 55, 40], [100, 98, 97, 96, 94, 93, 92, 90, 88, 87, 84, 83, 74, 69, 68, 65, 53, 48], [100, 90, 86, 65, 63, 59, 57, 52, 51, 48], [98, 96, 92, 89, 85, 75, 69, 66, 64, 63, 56, 49, 47], [97, 95, 94, 89, 87, 70, 68, 54, 41], [98, 97, 94, 92, 88, 54, 47, 43], [98, 96, 95, 94, 92, 89, 88, 87, 86, 70, 64, 63, 60, 59, 57], [98, 95, 94, 93, 91, 82, 71, 69, 68, 65, 63, 59, 47], [99, 93, 92, 91, 89, 85, 74, 64, 62, 54, 47], [98, 97, 95, 94, 93, 92, 89, 88, 87, 86, 83, 77, 71, 69, 64, 62, 60], [99, 98, 94, 91, 89, 87, 85, 84, 83, 78, 69, 64, 63, 55, 51], [97, 96, 94, 92, 91, 89, 88, 84, 83, 80, 74, 73, 72, 71, 70, 68, 66, 65], [96, 95, 92, 91, 89, 88, 87, 86, 85, 84, 83, 80, 78, 72, 68, 63], [95, 94, 90, 89, 87, 86, 82, 77, 71, 69, 68, 59], [100, 94, 87, 86, 85, 77, 73, 69, 64, 54], [95, 94, 93, 92, 91, 90, 88, 87, 84, 82, 80, 79, 78, 77, 76, 68], [99, 94, 92, 91, 89, 76, 71, 69, 62, 60], [98, 96, 95, 93, 90, 89, 88, 86, 84, 83, 80, 79, 73, 70], [93, 91, 88, 87, 86, 85, 84, 83, 82, 79, 78, 76, 70, 69], [97, 95, 94, 90, 89, 84, 80, 79, 77, 76, 68, 59], [94, 92, 90, 88, 87, 85, 73, 69, 67, 66, 60], [91, 90, 89, 85, 84, 83, 79, 78, 74, 72, 70, 66], [98, 93, 91, 88, 87, 86, 85, 83, 79, 78, 69, 65], [91, 88, 87, 84, 83, 81, 80, 78, 72, 66, 63], [91, 85, 81, 79, 47], [94, 89, 88, 83, 81, 80, 77, 54], [96, 93, 92, 91, 88, 86, 85, 84, 78, 72, 69], [98, 93, 91, 90, 86, 85, 83, 82, 81, 79, 78, 77], [91, 89, 85, 82, 78, 76, 71, 62], [88, 86, 82, 80, 79, 65, 59], [92, 91, 89, 84, 83, 82, 80, 78, 76, 68], [97, 92, 87, 85, 83, 82, 81, 79, 78, 70], [90, 87, 86, 84, 83, 80, 78, 76, 70], [85, 82, 80, 78, 77, 75, 64], [97, 95, 93, 87, 84, 81, 80, 78, 77], [91, 90, 87, 83, 82, 81, 80, 79, 77], [97, 96, 88, 79, 77, 76, 68], [95, 89, 84, 81, 77, 76, 69], [89, 82, 81, 79, 77, 76], [84, 82, 78, 76, 71], [90, 80, 79, 76, 68], [90, 83, 79, 78, 76], [93, 83, 81, 69], [85, 81, 78, 76], [85, 83, 78], [82, 80, 78], [88, 86, 85], [84, 68], [79, 76], [81, 76], [77, 76], [82, 77], [80, 78], [81], [80], [77], [79], [77], [76], [86], [79], [102], [102], [102], [102], [102], [102], [102], [102], [102], [102], [102], [102], [102], [102], [102], [102], [102], [102], [102], [102], [102], [102], [102], [102], [102], [102], []]
letting durations = [[0], [2, 4, 10], [2, 5, 8], [3, 8, 9], [3, 8, 9], [3, 8, 10], [1, 5, 10], [6, 9, 10], [6, 7, 9], [1, 7, 10], [1, 2, 3], [3, 4, 9], [2, 6, 10], [1, 2, 10], [4, 5, 6], [1, 3, 6], [5, 7, 10], [1, 5, 9], [7, 8, 10], [2, 5, 7], [3, 5, 8], [1, 6, 10], [2, 5, 8], [1, 6, 7], [1, 2, 7], [2, 4, 10], [3, 6, 8], [2, 3, 6], [5, 6, 8], [1, 4, 8], [4, 9, 10], [2, 5, 8], [1, 5, 7], [5, 6, 9], [4, 6, 7], [5, 6, 7], [2, 6, 10], [2, 4, 7], [1, 7, 8], [3, 8, 9], [2, 5, 7], [3, 6, 9], [1, 3, 10], [2, 4, 9], [2, 3, 4], [7, 9, 10], [2, 3, 5], [4, 5, 8], [5, 7, 10], [1, 2, 3], [1, 4, 7], [2, 6, 10], [3, 4, 6], [2, 7, 10], [4, 8, 9], [1, 4, 10], [3, 4, 6], [1, 9, 10], [6, 7, 8], [6, 7, 10], [2, 3, 4], [3, 4, 8], [5, 6, 7], [2, 5, 10], [4, 6, 7], [1, 6, 9], [4, 6, 10], [3, 4, 9], [1, 7, 10], [3, 6, 8], [1, 7, 8], [3, 7, 10], [1, 5, 7], [4, 5, 10], [1, 5, 8], [2, 3, 4], [2, 7, 8], [4, 5, 7], [3, 5, 10], [2, 7, 9], [3, 9, 10], [5, 6, 9], [5, 6, 7], [6, 9, 10], [1, 4, 10], [5, 6, 8], [7, 9, 10], [6, 7, 10], [3, 4, 5], [2, 4, 7], [4, 5, 8], [1, 3, 9], [3, 4, 9], [2, 3, 4], [7, 8, 10], [3, 4, 10], [2, 7, 9], [2, 3, 4], [7, 8, 9], [2, 5, 8], [2, 3, 6], [0]]
letting resourceUsage = [[[0, 0, 0, 0]], [[3, 3, 9, 8], [2, 2, 9, 8], [2, 2, 9, 7]], [[5, 5, 4, 7], [3, 3, 3, 4], [3, 3, 2, 3]], [[3, 3, 3, 5], [3, 2, 2, 4], [3, 2, 1, 3]], [[5, 3, 6, 4], [3, 2, 5, 2], [2, 2, 4, 1]], [[3, 4, 10, 6], [3, 3, 6, 5], [3, 3, 2, 4]], [[1, 2, 8, 6], [1, 2, 8, 5], [1, 2, 8, 4]], [[3, 5, 4, 7], [3, 4, 4, 7], [3, 4, 4, 5]], [[2, 4, 7, 3], [1, 4, 6, 3], [1, 4, 1, 3]], [[2, 3, 6, 7], [2, 3, 5, 5], [2, 3, 3, 1]], [[3, 5, 8, 5], [3, 5, 6, 5], [3, 5, 6, 4]], [[5, 3, 4, 7], [4, 2, 3, 6], [3, 1, 3, 4]], [[5, 2, 1, 7], [4, 2, 1, 6], [3, 2, 1, 3]], [[5, 5, 8, 4], [4, 4, 7, 2], [4, 4, 7, 1]], [[3, 4, 6, 6], [2, 2, 4, 5], [1, 2, 3, 5]], [[4, 1, 6, 8], [4, 1, 5, 5], [2, 1, 5, 3]], [[5, 2, 5, 10], [5, 2, 5, 9], [5, 1, 5, 8]], [[2, 1, 7, 10], [1, 1, 5, 9], [1, 1, 3, 9]], [[4, 5, 9, 6], [3, 4, 8, 6], [3, 4, 7, 6]], [[2, 4, 1, 7], [1, 3, 1, 6], [1, 3, 1, 3]], [[2, 3, 10, 3], [2, 3, 7, 3], [1, 1, 5, 3]], [[3, 3, 6, 5], [3, 3, 6, 4], [3, 1, 5, 5]], [[3, 2, 8, 7], [2, 2, 7, 6], [2, 1, 7, 2]], [[3, 2, 10, 8], [3, 2, 8, 5], [3, 2, 7, 5]], [[4, 4, 1, 9], [3, 3, 1, 4], [3, 3, 1, 3]], [[4, 1, 6, 7], [3, 1, 6, 6], [2, 1, 6, 6]], [[4, 3, 6, 8], [2, 2, 4, 6], [2, 1, 2, 6]], [[5, 3, 8, 8], [5, 2, 6, 7], [5, 2, 6, 6]], [[3, 4, 7, 9], [3, 3, 6, 7], [1, 3, 5, 6]], [[4, 5, 8, 9], [4, 4, 7, 8], [4, 4, 6, 6]], [[3, 4, 4, 6], [3, 4, 4, 5], [3, 2, 3, 4]], [[4, 4, 7, 7], [4, 3, 5, 6], [4, 3, 2, 6]], [[2, 2, 10, 7], [2, 2, 10, 6], [2, 2, 10, 1]], [[3, 3, 6, 4], [3, 2, 5, 4], [2, 2, 4, 4]], [[2, 5, 10, 3], [1, 4, 7, 3], [1, 4, 4, 2]], [[5, 3, 7, 7], [4, 3, 5, 4], [3, 3, 3, 1]], [[5, 1, 6, 8], [3, 1, 5, 6], [3, 1, 5, 4]], [[4, 1, 7, 9], [4, 1, 4, 9], [3, 1, 3, 9]], [[5, 3, 7, 7], [3, 2, 5, 6], [2, 2, 3, 4]], [[2, 4, 7, 2], [2, 2, 5, 2], [2, 1, 5, 2]], [[4, 2, 4, 5], [4, 2, 3, 5], [4, 2, 2, 5]], [[4, 5, 4, 6], [3, 4, 2, 4], [3, 2, 1, 3]], [[4, 4, 5, 7], [4, 4, 5, 6], [4, 4, 5, 4]], [[5, 4, 1, 9], [5, 4, 1, 7], [5, 4, 1, 6]], [[4, 4, 7, 4], [2, 2, 7, 2], [2, 2, 7, 1]], [[3, 4, 4, 7], [3, 3, 3, 7], [3, 2, 3, 6]], [[4, 3, 4, 3], [3, 3, 3, 2], [2, 3, 1, 1]], [[4, 2, 7, 2], [4, 2, 6, 2], [4, 2, 6, 1]], [[3, 3, 4, 6], [2, 3, 4, 6], [2, 3, 4, 4]], [[5, 3, 7, 6], [4, 2, 7, 5], [4, 2, 7, 4]], [[3, 4, 3, 4], [1, 4, 2, 4], [1, 2, 2, 4]], [[4, 3, 7, 1], [3, 3, 6, 1], [3, 3, 5, 1]], [[3, 5, 8, 10], [3, 3, 8, 4], [2, 3, 7, 2]], [[3, 1, 6, 2], [2, 1, 4, 2], [2, 1, 3, 2]], [[2, 2, 6, 10], [1, 2, 4, 6], [1, 2, 4, 5]], [[3, 2, 2, 4], [2, 1, 2, 4], [1, 1, 2, 3]], [[3, 5, 8, 6], [3, 3, 3, 4], [3, 3, 3, 3]], [[4, 3, 8, 4], [3, 2, 8, 4], [3, 1, 7, 4]], [[1, 4, 3, 10], [1, 4, 3, 8], [1, 4, 1, 8]], [[3, 1, 7, 8], [2, 1, 7, 5], [2, 1, 7, 4]], [[2, 4, 5, 7], [2, 4, 3, 7], [1, 4, 2, 7]], [[4, 4, 6, 2], [4, 4, 5, 2], [4, 4, 2, 1]], [[4, 4, 5, 6], [4, 4, 3, 5], [4, 4, 3, 4]], [[2, 1, 9, 6], [2, 1, 8, 5], [2, 1, 8, 4]], [[4, 4, 8, 5], [3, 4, 6, 5], [3, 4, 6, 4]], [[3, 3, 7, 2], [2, 2, 4, 2], [1, 2, 3, 2]], [[5, 4, 9, 9], [5, 3, 9, 9], [5, 3, 8, 8]], [[1, 2, 6, 6], [1, 2, 5, 5], [1, 1, 3, 5]], [[4, 4, 8, 6], [3, 4, 6, 5], [1, 4, 6, 4]], [[4, 3, 8, 5], [4, 1, 7, 3], [2, 1, 7, 3]], [[5, 4, 7, 6], [4, 4, 5, 5], [4, 3, 3, 5]], [[4, 5, 6, 5], [4, 5, 6, 4], [3, 5, 5, 3]], [[4, 3, 6, 5], [4, 2, 6, 5], [4, 2, 6, 2]], [[5, 5, 3, 10], [4, 4, 3, 8], [2, 4, 2, 6]], [[4, 4, 5, 7], [4, 4, 5, 6], [3, 4, 4, 5]], [[4, 2, 2, 10], [3, 1, 1, 9], [3, 1, 1, 8]], [[1, 3, 6, 7], [1, 3, 6, 6], [1, 2, 3, 6]], [[1, 3, 8, 5], [1, 2, 8, 3], [1, 2, 8, 1]], [[3, 2, 8, 6], [3, 1, 8, 4], [2, 1, 7, 3]], [[4, 4, 6, 9], [3, 3, 4, 7], [3, 2, 2, 7]], [[2, 2, 7, 9], [1, 1, 3, 5], [1, 1, 2, 1]], [[4, 2, 9, 6], [3, 2, 6, 5], [3, 2, 3, 3]], [[3, 4, 7, 4], [2, 3, 5, 4], [1, 3, 5, 4]], [[3, 4, 8, 7], [2, 2, 6, 4], [2, 2, 6, 2]], [[3, 5, 7, 4], [1, 3, 5, 3], [1, 3, 5, 2]], [[1, 4, 2, 10], [1, 3, 1, 9], [1, 3, 1, 8]], [[5, 2, 4, 8], [5, 1, 2, 8], [5, 1, 2, 6]], [[2, 5, 4, 8], [2, 5, 4, 4], [2, 5, 2, 3]], [[5, 2, 6, 6], [5, 2, 4, 5], [5, 2, 3, 4]], [[3, 1, 6, 7], [3, 1, 3, 5], [3, 1, 1, 4]], [[5, 3, 7, 2], [2, 2, 5, 2], [1, 2, 5, 2]], [[3, 3, 3, 9], [2, 3, 3, 8], [1, 3, 1, 8]], [[4, 5, 7, 8], [3, 3, 7, 8], [2, 2, 6, 6]], [[5, 5, 9, 7], [3, 3, 9, 5], [3, 3, 9, 3]], [[2, 3, 3, 8], [2, 3, 3, 5], [2, 3, 2, 4]], [[3, 4, 7, 7], [2, 3, 6, 6], [1, 3, 4, 5]], [[5, 5, 9, 9], [3, 5, 7, 3], [3, 5, 6, 2]], [[2, 5, 4, 8], [1, 3, 4, 4], [1, 3, 3, 3]], [[5, 4, 6, 7], [4, 4, 5, 7], [3, 4, 3, 7]], [[5, 3, 9, 8], [3, 2, 8, 7], [2, 1, 7, 7]], [[5, 5, 4, 9], [3, 5, 3, 9], [1, 5, 1, 8]], [[0, 0, 0, 0]]]
